Data path: /scratch/opt/lxu/CFLG/benchmarks/Kgroup_A
Instance: K100.9.red
Result path: /scratch/opt/lxu/CFLG/results/Kgroup_A
Solver: Gurobi
Time limit: 3600
Formulation: LEFP
Cover: Large
julia --project=. src/main.jl /scratch/opt/lxu/CFLG/benchmarks/Kgroup_A K100.9.red /scratch/opt/lxu/CFLG/results/Kgroup_A Gurobi 3600 LEFP Large
The latest version of Julia in the `release` channel is 1.11.5+0.x64.linux.gnu. You currently have `1.11.4+0.x64.linux.gnu` installed. Run:

  juliaup update

in your terminal shell to install Julia 1.11.5+0.x64.linux.gnu and update the `release` channel to that version.
/scratch/opt/lxu/CFLG/benchmarks/Kgroup_A Gurobi 3600.0 /scratch/opt/lxu/CFLG/results/Kgroup_A K100.9.red LEFP Large
/scratch/opt/lxu/CFLG/benchmarks/Kgroup_A/K100.9.red

 read graph
data loaded


after absorb:21 22

max_piece:4
problem_graph/original graph: node: 30/22 edge: 78/70 dlt: 0.5840503453289713 break_avg_len: 0.2620738729040255 break_max_len: 0.584049761278626Set parameter TokenServer to value "solice01.zib.de"
Set parameter Threads to value 1
Set parameter OutputFlag to value 1
Gurobi Optimizer version 12.0.1 build v12.0.1rc0 (linux64 - "Debian GNU/Linux 12 (bookworm)")

CPU model: Intel(R) Xeon(R) Gold 5222 CPU @ 3.80GHz, instruction set [SSE2|AVX|AVX2|AVX512]
Thread count: 8 physical cores, 16 logical processors, using up to 1 threads

Non-default parameters:
Threads  1

Optimize a model with 108 rows, 234 columns and 390 nonzeros
Model fingerprint: 0x7a182fd1
Coefficient statistics:
  Matrix range     [1e+00, 1e+00]
  Objective range  [1e+00, 1e+00]
  Bounds range     [1e+00, 1e+00]
  RHS range        [0e+00, 0e+00]
Presolve removed 108 rows and 234 columns
Presolve time: 0.02s
Presolve: All rows and columns removed
Iteration    Objective       Primal Inf.    Dual Inf.      Time
       0   -0.0000000e+00   0.000000e+00   0.000000e+00      0s

Solved in 0 iterations and 0.02 seconds (0.00 work units)
Optimal objective -0.000000000e+00

User-callback calls 35, time in user-callback 0.00 sec
elapsed CPU time: 0.893064 seconds
Set parameter TokenServer to value "solice01.zib.de"
Set parameter Threads to value 1
Set parameter OutputFlag to value 1
Set parameter MIPGap to value 0.0001
Set parameter MIPGapAbs to value 1
Set parameter TimeLimit to value 3599.106936

 more cuts:falsefalse
0 0
formulation:LEFP0 78 30

 model loaded

Gurobi Optimizer version 12.0.1 build v12.0.1rc0 (linux64 - "Debian GNU/Linux 12 (bookworm)")

CPU model: Intel(R) Xeon(R) Gold 5222 CPU @ 3.80GHz, instruction set [SSE2|AVX|AVX2|AVX512]
Thread count: 8 physical cores, 16 logical processors, using up to 1 threads

Non-default parameters:
TimeLimit  3599.106936
MIPGapAbs  1
Threads  1

Optimize a model with 5230 rows, 2601 columns and 15462 nonzeros
Model fingerprint: 0x96fc55cf
Variable types: 186 continuous, 2415 integer (2415 binary)
Coefficient statistics:
  Matrix range     [1e-06, 1e+00]
  Objective range  [1e+00, 1e+00]
  Bounds range     [2e-02, 6e-01]
  RHS range        [2e-02, 9e+00]
Found heuristic solution: objective 7.0000000
Presolve removed 1240 rows and 227 columns
Presolve time: 0.05s
Presolved: 3990 rows, 2374 columns, 13298 nonzeros
Variable types: 108 continuous, 2266 integer (2266 binary)

Root relaxation: objective 8.108737e-01, 1480 iterations, 0.03 seconds (0.04 work units)

    Nodes    |    Current Node    |     Objective Bounds      |     Work
 Expl Unexpl |  Obj  Depth IntInf | Incumbent    BestBd   Gap | It/Node Time

     0     0    0.81087    0  136    7.00000    0.81087  88.4%     -    0s
H    0     0                       6.0000000    0.81087  86.5%     -    0s
H    0     0                       5.0000000    0.81087  83.8%     -    0s
     0     0    1.34459    0  208    5.00000    1.34459  73.1%     -    0s
H    0     0                       4.0000000    1.36344  65.9%     -    0s
     0     0    1.48754    0  242    4.00000    1.48754  62.8%     -    0s
     0     0    1.52627    0  224    4.00000    1.52627  61.8%     -    0s
     0     0    1.52627    0  226    4.00000    1.52627  61.8%     -    0s
     0     0    1.76333    0  223    4.00000    1.76333  55.9%     -    0s
     0     0    1.83023    0  238    4.00000    1.83023  54.2%     -    0s
     0     0    1.83031    0  212    4.00000    1.83031  54.2%     -    0s
     0     0    2.00000    0  174    4.00000    2.00000  50.0%     -    0s
     0     0    2.00000    0  106    4.00000    2.00000  50.0%     -    0s
     0     0    2.00000    0  132    4.00000    2.00000  50.0%     -    0s
     0     0    2.00000    0  127    4.00000    2.00000  50.0%     -    0s
     0     0    2.00000    0   82    4.00000    2.00000  50.0%     -    0s
     0     0    2.00000    0  140    4.00000    2.00000  50.0%     -    0s
     0     0    2.00000    0   61    4.00000    2.00000  50.0%     -    0s
H    0     0                       3.0000000    2.00000  33.3%     -    0s

Cutting planes:
  Learned: 14
  Cover: 18
  Implied bound: 3
  Clique: 3
  MIR: 16
  Zero half: 1
  RLT: 2
  Relax-and-lift: 2
  BQP: 5
  PSD: 2

Explored 1 nodes (14690 simplex iterations) in 0.98 seconds (1.11 work units)
Thread count was 1 (of 16 available processors)

Solution count 5: 3 4 5 ... 7

Optimal solution found (tolerance 1.00e-04)
Best objective 3.000000000000e+00, best bound 2.000000000000e+00, gap 33.3333%

User-callback calls 748, time in user-callback 0.00 sec

 sepatime0
3.0Stat(MathOptInterface.OPTIMAL, 3.0, 2.0000000000000004, 0.3333333333333332, 0.0, 0.893064, 0.9756548404693604, 1, Main.CFLG.LEFP, "", #undef)
